objective value:                                  -20
t_n_7                                               1 	(obj:-1)
t_n_52                                              1 	(obj:-1)
t_n_149                                             1 	(obj:-1)
t_n_214                                             1 	(obj:-1)
t_n_236                                             1 	(obj:-1)
t_n_260                                             1 	(obj:-1)
t_n_301                                             1 	(obj:-1)
t_n_316                                             1 	(obj:-1)
t_n_379                                             1 	(obj:-1)
t_n_449                                             1 	(obj:-1)
t_n_574                                             1 	(obj:-1)
t_n_645                                             1 	(obj:-1)
t_n_662                                             1 	(obj:-1)
t_n_721                                             1 	(obj:-1)
t_n_744                                             1 	(obj:-1)
t_n_788                                             1 	(obj:-1)
t_n_799                                             1 	(obj:-1)
t_n_884                                             1 	(obj:-1)
t_n_893                                             1 	(obj:-1)
t_n_936                                             1 	(obj:-1)
